set VV := 0 1 2 3 4 5 6 7 8 9 10 11 12 13 14 ;
set VS := 0 1 2 3 4 5 6 7 8 9 10 11 12 13 14 15 16 17 18 19 20 21 22 23 24 25 26 27 28 29 30 31 32 33 ;
param cv := 
0 13
1 17
2 25
3 24
4 19
5 21
6 13
7 24
8 14
9 17
10 13
11 16
12 10
13 20
14 17
;
param cs := 
0 39
1 37
2 38
3 34
4 33
5 20
6 36
7 24
8 34
9 21
10 32
11 27
12 21
13 25
14 30
15 28
16 36
17 35
18 25
19 34
20 38
21 37
22 24
23 35
24 21
25 22
26 28
27 29
28 35
29 37
30 37
31 30
32 35
33 27
;
param bv:	 0 1 2 3 4 5 6 7 8 9 10 11 12 13 14 := 
		0 0 0 0 0 0 0 0 0 23 0 0 0 0 0 17 
		1 0 0 0 0 0 0 0 0 11 20 20 0 16 0 22 
		2 0 0 0 0 0 13 0 0 0 0 0 0 11 0 0 
		3 0 0 0 0 0 0 0 0 0 21 12 0 0 24 0 
		4 0 0 0 0 0 0 0 0 0 0 0 21 0 0 0 
		5 0 0 0 0 0 0 0 0 0 0 0 0 0 0 0 
		6 0 0 0 0 0 0 0 18 0 0 0 0 0 0 0 
		7 0 0 0 0 0 0 0 0 0 0 0 0 0 24 0 
		8 0 0 0 0 0 0 0 0 0 0 0 0 0 0 0 
		9 0 0 0 0 0 0 0 0 0 0 0 0 11 0 0 
		10 0 0 0 0 0 0 0 0 0 0 0 17 0 0 0 
		11 0 0 0 0 0 0 0 0 0 0 0 0 0 14 10 
		12 0 0 0 0 0 0 0 0 0 0 0 0 0 0 0 
		13 0 0 0 0 0 0 0 0 0 0 0 0 0 0 0 
		14 0 0 0 0 0 0 0 0 0 0 0 0 0 0 0 
;
param bs:	 0 1 2 3 4 5 6 7 8 9 10 11 12 13 14 15 16 17 18 19 20 21 22 23 24 25 26 27 28 29 30 31 32 33 := 
		0 0 0 0 0 0 0 0 0 0 0 0 0 0 0 0 0 29 0 0 40 0 40 0 0 0 0 0 0 0 0 0 0 0 29 
		1 0 0 0 0 0 0 36 30 0 0 0 0 0 0 0 0 0 0 20 0 34 0 0 0 0 0 0 0 0 0 0 0 0 23 
		2 0 0 0 33 0 0 0 0 0 0 0 34 0 0 0 0 0 25 0 0 0 0 0 26 0 0 0 0 0 0 0 0 0 29 
		3 0 0 33 0 0 0 0 0 0 32 0 0 0 0 0 40 0 0 20 22 38 0 0 0 0 0 0 0 0 0 0 0 0 0 
		4 0 0 0 0 0 0 0 0 0 0 0 0 23 0 29 0 0 0 32 0 30 29 0 0 23 0 0 35 0 0 0 0 0 0 
		5 0 0 0 0 0 0 0 0 0 0 0 30 0 0 0 0 0 0 0 0 0 0 0 0 0 0 0 0 0 0 25 0 0 0 
		6 0 36 0 0 0 0 0 27 0 0 0 0 0 32 0 0 0 31 0 38 24 26 29 0 0 0 0 0 0 31 0 0 0 0 
		7 0 30 0 0 0 0 27 0 0 26 0 0 25 0 0 0 0 0 0 0 0 0 32 0 0 0 0 0 0 0 0 0 0 0 
		8 0 0 0 0 0 0 0 0 0 0 0 0 0 0 0 0 27 0 26 0 0 0 0 0 0 0 0 0 39 0 0 0 0 0 
		9 0 0 0 32 0 0 0 26 0 0 22 0 0 0 0 0 0 0 0 0 0 0 0 0 0 0 32 0 0 0 0 0 0 0 
		10 0 0 0 0 0 0 0 0 0 22 0 0 0 0 0 0 26 0 0 0 0 0 0 0 0 0 0 0 0 0 0 0 0 30 
		11 0 0 34 0 0 30 0 0 0 0 0 0 0 0 40 0 0 26 0 0 0 0 0 0 0 0 0 0 0 0 0 20 0 0 
		12 0 0 0 0 23 0 0 25 0 0 0 0 0 0 0 0 35 0 0 33 0 39 0 0 34 0 0 0 0 0 0 0 38 0 
		13 0 0 0 0 0 0 32 0 0 0 0 0 0 0 0 0 0 0 0 0 0 0 0 0 0 0 0 0 0 0 37 0 0 0 
		14 0 0 0 0 29 0 0 0 0 0 0 40 0 0 0 25 0 0 0 0 0 0 0 0 0 0 0 0 0 0 0 0 0 0 
		15 0 0 0 40 0 0 0 0 0 0 0 0 0 0 25 0 0 0 0 0 0 0 21 0 0 0 25 0 0 0 29 0 0 34 
		16 29 0 0 0 0 0 0 0 27 0 26 0 35 0 0 0 0 0 0 0 0 0 0 0 0 0 0 0 0 0 31 0 0 0 
		17 0 0 25 0 0 0 31 0 0 0 0 26 0 0 0 0 0 0 0 0 0 0 0 23 0 0 0 0 0 34 0 0 0 26 
		18 0 20 0 20 32 0 0 0 26 0 0 0 0 0 0 0 0 0 0 0 0 0 0 0 0 0 22 0 0 0 0 0 0 0 
		19 40 0 0 22 0 0 38 0 0 0 0 0 33 0 0 0 0 0 0 0 0 0 0 0 22 0 0 0 0 0 0 0 0 0 
		20 0 34 0 38 30 0 24 0 0 0 0 0 0 0 0 0 0 0 0 0 0 0 34 0 0 31 0 0 0 0 0 0 0 0 
		21 40 0 0 0 29 0 26 0 0 0 0 0 39 0 0 0 0 0 0 0 0 0 0 28 0 0 0 0 0 28 0 0 0 0 
		22 0 0 0 0 0 0 29 32 0 0 0 0 0 0 0 21 0 0 0 0 34 0 0 39 0 0 0 0 0 0 0 0 0 0 
		23 0 0 26 0 0 0 0 0 0 0 0 0 0 0 0 0 0 23 0 0 0 28 39 0 0 0 0 0 0 23 0 34 0 0 
		24 0 0 0 0 23 0 0 0 0 0 0 0 34 0 0 0 0 0 0 22 0 0 0 0 0 35 0 29 0 0 0 0 0 0 
		25 0 0 0 0 0 0 0 0 0 0 0 0 0 0 0 0 0 0 0 0 31 0 0 0 35 0 22 0 0 29 0 0 0 0 
		26 0 0 0 0 0 0 0 0 0 32 0 0 0 0 0 25 0 0 22 0 0 0 0 0 0 22 0 0 0 0 40 0 0 0 
		27 0 0 0 0 35 0 0 0 0 0 0 0 0 0 0 0 0 0 0 0 0 0 0 0 29 0 0 0 0 0 0 0 0 0 
		28 0 0 0 0 0 0 0 0 39 0 0 0 0 0 0 0 0 0 0 0 0 0 0 0 0 0 0 0 0 0 0 0 21 0 
		29 0 0 0 0 0 0 31 0 0 0 0 0 0 0 0 0 0 34 0 0 0 28 0 23 0 29 0 0 0 0 0 0 22 0 
		30 0 0 0 0 0 25 0 0 0 0 0 0 0 37 0 29 31 0 0 0 0 0 0 0 0 0 40 0 0 0 0 0 21 0 
		31 0 0 0 0 0 0 0 0 0 0 0 20 0 0 0 0 0 0 0 0 0 0 0 34 0 0 0 0 0 0 0 0 0 0 
		32 0 0 0 0 0 0 0 0 0 0 0 0 38 0 0 0 0 0 0 0 0 0 0 0 0 0 0 0 21 22 21 0 0 0 
		33 29 23 29 0 0 0 0 0 0 0 30 0 0 0 0 34 0 26 0 0 0 0 0 0 0 0 0 0 0 0 0 0 0 0 
;
